proyfinal/src/viki/013/experimentInOfficeAgust.take6.output/a83f5f72-9541-45e6-b601-5408b23d9a53.als.out
Reading from standard input... Use '--help' for help.
============================[ Problem Statistics ]=============================
|                                                                             |
|  Number of variables:         87638                                         |
|  Number of clauses:          161767                                         |
|  Parse time:                   0.04 s                                       |
|                                                                             |
============================[ Search Statistics ]==============================
| Conflicts |          ORIGINAL         |          LEARNT          | Progress |
|           |    Vars  Clauses Literals |    Limit  Clauses Lit/Cl |          |
===============================================================================
|       100 |   62369   105148   262692 |    38554      100     10 | 28.833 % |
|       250 |   62369   105148   262692 |    42409      250     37 | 28.833 % |
|       475 |   62369   105148   262692 |    46650      475     41 | 28.833 % |
|       812 |   62369   105148   262692 |    51315      812     51 | 28.833 % |
|      1318 |   62369   105148   262692 |    56447     1318     74 | 28.833 % |
|      2077 |   62369   105148   262692 |    62092     2077     81 | 28.833 % |
|      3216 |   62369   105148   262692 |    68301     3216     88 | 28.833 % |
|      4924 |   62368   105104   262602 |    75131     4921     87 | 28.835 % |
|      7486 |   49652    68441   172429 |    82644     6598     75 | 43.344 % |
|     11330 |   49127    66078   166686 |    90908    10060     65 | 43.943 % |
===============================================================================
restarts              : 61
conflicts             : 14442          (7501 /sec)
decisions             : 43145          (0.00 % random) (22409 /sec)
propagations          : 20580364       (10689355 /sec)
conflict literals     : 830171         (46.30 % deleted)
Memory used           : 34.05 MB
CPU time              : 1.92531 s

UNSATISFIABLE
